893533
0 20 6578
20 1 11545
1 26 15287
26 17 12605
17 39 18404
39 18 13572
18 3 26532
3 21 23621
21 23 45979
23 4 63665
4 31 3289
31 19 24201
19 30 21913
30 24 7859
24 38 4093
38 29 6375
29 36 941
36 25 14545
25 32 15457
32 11 3966
11 33 39714
33 22 31608
22 37 7448
37 28 744
28 27 17517
27 12 6411
12 6 23210
6 35 11793
35 5 22446
5 8 47657
8 7 54348
7 14 26226
14 16 45489
16 13 42390
13 2 30026
2 15 71701
15 34 56495
34 10 5412
10 9 5506
9 0 6946
